problems/csplib-prob013/ProgressivePartyProblem-models/compact/O2/lingeling/model_1_1-Ian02-solution000001.eprime-solution
language ESSENCE' 1.0

letting aux1_Occurrence be
        [[true, true, true, false, true, true; int(1..6)], [true, true, true, false, true, true; int(1..6)],
         [true, true, true, false, true, true; int(1..6)], [true, true, true, false, true, true; int(1..6)],
         [true, true, true, false, true, true; int(1..6)]; int(1..5)]
letting hosts_Occurrence be [true, true, true, false, true, true; int(1..6)]
letting sched_ExplicitR9_Function1D be
        [[1, 2, 3, 1, 5, 6; int(1..6)], [1, 2, 3, 2, 5, 6; int(1..6)], [1, 2, 3, 3, 5, 6; int(1..6)],
         [1, 2, 3, 5, 5, 6; int(1..6)], [1, 2, 3, 6, 5, 6; int(1..6)]; int(1..5)]
