problems/csplib-prob013/ProgressivePartyProblem-models/compact/O2/lingeling/model_1_1-Ian02-solution000001.solution
language Essence 1.3

letting hosts be {1, 2, 3, 5, 6}
letting sched be
        {function(1 --> 1, 2 --> 2, 3 --> 3, 4 --> 1, 5 --> 5, 6 --> 6),
         function(1 --> 1, 2 --> 2, 3 --> 3, 4 --> 2, 5 --> 5, 6 --> 6),
         function(1 --> 1, 2 --> 2, 3 --> 3, 4 --> 3, 5 --> 5, 6 --> 6),
         function(1 --> 1, 2 --> 2, 3 --> 3, 4 --> 5, 5 --> 5, 6 --> 6),
         function(1 --> 1, 2 --> 2, 3 --> 3, 4 --> 6, 5 --> 5, 6 --> 6)}
